&CONTROL
calculation      = 'scf'
verbosity        = 'high'
restart_mode     = 'from_scratch'
wf_collect       = .TRUE.
nstep            = 1000
!tstress          = .TRUE.
tprnfor          = .TRUE.
outdir           = './tmp_ob'
prefix           = 'c11'
etot_conv_thr    = 1.D-7
forc_conv_thr    = 0.0001
disk_io          = 'low'
pseudo_dir       = '/home/bctan/QE/pseudoatsume/GBRV_pbe_UPF'
/
&SYSTEM
nspin=2
starting_magnetization(3)=0.2
starting_magnetization(5)=0.2
starting_magnetization(1)=0.2
starting_magnetization(4)=-0.2
ecutwfc          = 36
ecutrho          = 400
occupations      = 'smearing'
degauss          = 0.007
smearing         = 'm-p'
input_dft        = 'rpbe'
ntyp             = 5
nat              = 51
ibrav            = 0
/
&ELECTRONS
electron_maxstep = 1001
conv_thr         = 34.D-10
mixing_mode      = 'plain'
mixing_beta      = 0.3
diagonalization  = 'cg'
startingpot      = 'file'
/
&IONS
ion_dynamics     = 'bfgs'
upscale          = 20.0
/
&CELL
cell_dynamics    = 'bfgs'
press            = 0
cell_factor      = 3.0
press_conv_thr   = 0.05
cell_dofree      = 'all'
/

ATOMIC_SPECIES
C 12.011 c_pbe_v1.2.uspp.F.UPF
H 1.008 h_pbe_v1.4.uspp.F.UPF
Pt 195.084 pt_pbe_v1.4.uspp.F.UPF
C1 12.011 c_pbe_v1.2.uspp.F.UPF
O 15.999 o_pbe_v1.2.uspp.F.UPF

K_POINTS automatic
8 2 1  0 0 0

CELL_PARAMETERS angstrom
  9.863980720000    0.00000000    0.000000000
0.00000000000000 30.0000000000000 0.00000000000000
 0.00000000    0.00000000   15.500000000
ATOMIC_POSITIONS angstrom
C1       0.711871490   2.921239419   5.000000000    0   0   0
C        0.709121915   4.359327206   5.010677676
C        1.944869080   2.209367928   5.000000000    0   0   0
C1       1.943111529   5.061406448   5.032641454
C1       3.177866670   2.921239419   5.000000000    0   0   0
C        3.177711034   4.357501774   5.021302297
C        4.410864260   2.209367928   5.000000000    0   0   0
C1       4.412248256   5.061372920   5.032393434
C1       5.643861850   2.921239419   5.000000000    0   0   0
C        5.646356725   4.359347143   5.010383777
C        6.876859440   2.209367928   5.000000000    0   0   0
C1       6.878438034   5.069436474   5.004786109
C1       8.109857030   2.921239419   5.000000000    0   0   0
C        8.109759631   4.360618199   4.998681008
C        9.342854620   2.209367928   5.000000000    0   0   0
C1       9.341019725   5.069465325   5.005140287
C1       0.709144508   7.202795974   5.054969376
C        0.710631598   8.633265236   5.079386226
C        1.941859318   6.489345942   5.072703158
C1       1.949506798   9.318372039   5.205145143
C1       3.177515726   7.187779367   5.112910716
C        3.177407927   8.610486742   5.196445028
C        4.413225134   6.489332037   5.072280407
C1       4.405291197   9.318416355   5.203894352
C1       5.645964919   7.202696962   5.054185260
C        5.644319871   8.633258283   5.078079549
C        6.879340201   6.503286518   5.007431659
C1       6.862173514   9.363761379   4.947519062
C1       8.109653478   7.225161313   4.984981713
C        8.109563530   8.660670858   4.931852720
C        9.339968418   6.503284601   5.007923558
C1       9.356814809   9.363663856   4.948693992
H        1.944502339   1.109523374   5.000000000    0   0   0
H        4.410497520   1.109523374   5.000000000    0   0   0
H        6.876492701   1.109523374   5.000000000    0   0   0
H        9.342487882   1.109523374   5.000000000    0   0   0
H        5.547112141  12.551519107   5.067407951
C        6.783317991  10.798513893   4.852392484
C        1.965649309  10.747315425   5.296624300
C1       0.764237521  11.456541328   5.110066034
Pt       8.112202092  11.935305894   4.006058299
C        9.436335621  10.798090333   4.855314280
C        4.389202803  10.747488746   5.294457169
H        3.177408719  12.528061232   5.448102411
C1       5.590550389  11.456384204   5.105666552
C1       3.177441336  11.432205027   5.394141816
H        0.807388343  12.551598673   5.072285555
O        8.134407301  12.647866277   2.364157242
O        8.480360846  10.380039859   0.768486980
H        7.684314633  10.299291167   0.200251356
H        8.370426003  11.274396570   1.201865100
