&CONTROL
calculation      = 'scf'
verbosity        = 'high'
restart_mode     = 'from_scratch'
wf_collect       = .TRUE.
nstep            = 1000
!tstress          = .TRUE.
tprnfor          = .TRUE.
outdir           = './tmpoohaa'
prefix           = 'c11'
etot_conv_thr    = 1.D-7
forc_conv_thr    = 0.0001
disk_io          = 'low'
pseudo_dir       = '/home/bctan/QE/pseudoatsume/GBRV_pbe_UPF'
/
&SYSTEM
nspin=2
starting_magnetization(3)=0.2
starting_magnetization(5)=0.2
starting_magnetization(1)=0.2
starting_magnetization(4)=-0.2
ecutwfc          = 36
ecutrho          = 400
occupations      = 'smearing'
degauss          = 0.007
smearing         = 'm-p'
input_dft        = 'rpbe'
ntyp             = 5
nat              = 53
ibrav            = 0
/
&ELECTRONS
electron_maxstep = 1001
conv_thr         = 34.D-10
mixing_mode      = 'plain'
mixing_beta      = 0.3
diagonalization  = 'cg'
startingpot      = 'file'
/
&IONS
ion_dynamics     = 'bfgs'
upscale          = 20.0
/
&CELL
cell_dynamics    = 'bfgs'
press            = 0
cell_factor      = 3.0
press_conv_thr   = 0.05
cell_dofree      = 'all'
/

ATOMIC_SPECIES
C 12.011 c_pbe_v1.2.uspp.F.UPF
H 1.008 h_pbe_v1.4.uspp.F.UPF
Pt 195.084 pt_pbe_v1.4.uspp.F.UPF
C1 12.011 c_pbe_v1.2.uspp.F.UPF
O 15.999 o_pbe_v1.2.uspp.F.UPF

K_POINTS automatic
8 2 1  0 0 0

CELL_PARAMETERS angstrom
  9.863980720000    0.00000000    0.000000000
0.00000000000000 30.0000000000000 0.00000000000000
 0.00000000    0.00000000   15.500000000
ATOMIC_POSITIONS angstrom
C1       0.711871490   2.921239419   5.000000000    0   0   0
C        0.710355168   4.359020954   4.984987872
C        1.944869080   2.209367928   5.000000000    0   0   0
C1       1.943117137   5.062188396   4.983474446
C1       3.177866670   2.921239419   5.000000000    0   0   0
C        3.177764535   4.357372004   4.994367720
C        4.410864260   2.209367928   5.000000000    0   0   0
C1       4.412276507   5.062131256   4.984043239
C1       5.643861850   2.921239419   5.000000000    0   0   0
C        5.645162832   4.358994855   4.985431110
C        6.876859440   2.209367928   5.000000000    0   0   0
C1       6.878235716   5.068760273   4.960411588
C1       8.109857030   2.921239419   5.000000000    0   0   0
C        8.109759473   4.360176349   4.974756298
C        9.342854620   2.209367928   5.000000000    0   0   0
C1       9.341345601   5.068832674   4.959660581
C1       0.710226526   7.202659198   4.914542208
C        0.712270046   8.632328318   4.862282128
C        1.941956179   6.491236673   4.962498304
C1       1.948651430   9.326064594   4.934716925
C1       3.177630579   7.193584953   4.965685146
C        3.177516215   8.618871302   4.966836839
C        4.413255940   6.491240136   4.964730205
C1       4.406339097   9.325566768   4.945960613
C1       5.645231340   7.202590779   4.919639662
C        5.643140634   8.632195257   4.874150259
C        6.878923847   6.499856709   4.909662752
C1       6.864763456   9.352620413   4.714430597
C1       8.109714918   7.218470721   4.854873876
C        8.109819511   8.645892331   4.728673849
C        9.340698925   6.499815446   4.907210976
C1       9.355101400   9.352904776   4.700807062
H        1.944502339   1.109523374   5.000000000    0   0   0
H        4.410497520   1.109523374   5.000000000    0   0   0
H        6.876492701   1.109523374   5.000000000    0   0   0
H        9.342487882   1.109523374   5.000000000    0   0   0
H        5.576995086  12.549434651   4.754320493
C        6.799143336  10.779036309   4.560541360
C        1.959090796  10.758246436   4.943138211
C1       0.741607711  11.451474154   4.767295632
Pt       8.091444640  11.877671085   3.638013767
C        9.416092205  10.778270926   4.533094523
C        4.395335723  10.757399451   4.964745232
H        3.179621038  12.541874154   4.991085772
C1       5.613164019  11.453985098   4.810475513
C1       3.176948175  11.444569569   5.002702746
H        0.774806501  12.547692339   4.708427483
O        7.956179414  13.110668032   2.101871199
O        8.006874144  14.498150063   2.649433717
H        7.027518567  14.704092928   2.643964820
O        5.305481370  13.855562876   2.179529434
H        6.023707363  13.263287331   1.826542892
H        4.822764884  14.171928795   1.384930046

