&CONTROL
calculation      = 'relax'
verbosity        = 'high'
restart_mode     = 'from_scratch'
wf_collect       = .TRUE.
nstep            = 1000
!tstress          = .TRUE.
tprnfor          = .TRUE.
outdir           = './tmph2o2'
prefix           = 'c11'
etot_conv_thr    = 1.D-7
forc_conv_thr    = 0.0001
disk_io          = 'low'
pseudo_dir       = '/home/bctan/QE/pseudoatsume/GBRV_pbe_UPF'
/
&SYSTEM
nspin=2
starting_magnetization(3)=0.2
starting_magnetization(5)=0.2
starting_magnetization(1)=0.2
starting_magnetization(4)=-0.2
ecutwfc          = 36
ecutrho          = 400
occupations      = 'smearing'
degauss          = 0.007
smearing         = 'm-p'
input_dft        = 'rpbe'
ntyp             = 5
nat              = 53
ibrav            = 0
/
&ELECTRONS
electron_maxstep = 1001
conv_thr         = 34.D-10
mixing_mode      = 'plain'
mixing_beta      = 0.3
diagonalization  = 'cg'
startingpot      = 'file'
/
&IONS
ion_dynamics     = 'bfgs'
upscale          = 20.0
/
&CELL
cell_dynamics    = 'bfgs'
press            = 0
cell_factor      = 3.0
press_conv_thr   = 0.05
cell_dofree      = 'all'
/

ATOMIC_SPECIES
C 12.011 c_pbe_v1.2.uspp.F.UPF
H 1.008 h_pbe_v1.4.uspp.F.UPF
Pt 195.084 pt_pbe_v1.4.uspp.F.UPF
C1 12.011 c_pbe_v1.2.uspp.F.UPF
O 15.999 o_pbe_v1.2.uspp.F.UPF

K_POINTS automatic
8 2 1  0 0 0

CELL_PARAMETERS angstrom
  9.863980720000    0.00000000    0.000000000
0.00000000000000 30.0000000000000 0.00000000000000
 0.00000000    0.00000000   15.500000000
ATOMIC_POSITIONS angstrom
C1       0.711871490   2.921239419   5.000000000    0   0   0
C        0.708833276   4.359543171   4.994068851
C        1.944869080   2.209367928   5.000000000    0   0   0
C1       1.943822436   5.062721990   5.003393388
C1       3.177866670   2.921239419   5.000000000    0   0   0
C        3.177791338   4.358175540   5.005427169
C        4.410864260   2.209367928   5.000000000    0   0   0
C1       4.411844543   5.062178820   5.001975617
C1       5.643861850   2.921239419   5.000000000    0   0   0
C        5.646936803   4.359263840   4.993661550
C        6.876859440   2.209367928   5.000000000    0   0   0
C1       6.878132832   5.068489202   4.972487912
C1       8.109857030   2.921239419   5.000000000    0   0   0
C        8.109815278   4.359425802   4.980341173
C        9.342854620   2.209367928   5.000000000    0   0   0
C1       9.341551373   5.068541089   4.972213873
C1       0.708352909   7.202818334   4.963992608
C        0.710713671   8.634199916   4.940341044
C        1.943325740   6.490975503   5.007291012
C1       1.951162412   9.324635387   5.054939498
C1       3.178356123   7.190685184   5.023400693
C        3.179352152   8.617512737   5.057794314
C        4.412574697   6.489927400   5.003703417
C1       4.405801719   9.326555568   5.027930916
C1       5.646677148   7.202082468   4.960161003
C        5.644966816   8.632168790   4.926302189
C        6.878168039   6.502007622   4.934141892
C1       6.857572620   9.353761087   4.755434406
C1       8.109837250   7.224477862   4.881754229
C        8.108153291   8.652173901   4.765110183
C        9.341319541   6.502220131   4.934316475
C1       9.358452833   9.355993538   4.763657012
H        1.944502339   1.109523374   5.000000000    0   0   0
H        4.410497520   1.109523374   5.000000000    0   0   0
H        6.876492701   1.109523374   5.000000000    0   0   0
H        9.342487882   1.109523374   5.000000000    0   0   0
H        5.568976234  12.550348193   4.812139031
C        6.778579467  10.780210964   4.589273964
C        1.967150819  10.753590213   5.123881398
C1       0.752638716  11.458274183   4.936435565
Pt       8.126760386  11.845856659   3.739936937
C        9.466776778  10.782371995   4.617859594
C        4.393434000  10.756420185   5.061442876
H        3.181223764  12.538911866   5.202350874
C1       5.606029908  11.452756887   4.853795442
C1       3.182021386  11.440904074   5.171715048
H        0.790747255  12.553087947   4.886772443
O        9.556102918  13.128300425   2.570275260
H       10.327379806  12.529817855   2.278547358
H        9.188355185  13.508827529   1.741402574
O       11.636533012  11.543202863   1.924008976
H       11.307280211  10.650624138   1.668868866
H       12.074933214  11.386044443   2.799768498
