&CONTROL
calculation      = 'scf'
verbosity        = 'high'
restart_mode     = 'from_scratch'
wf_collect       = .TRUE.
nstep            = 1000
!tstress          = .TRUE.
tprnfor          = .TRUE.
outdir           = './tmpoha'
prefix           = 'c11'
etot_conv_thr    = 1.D-7
forc_conv_thr    = 0.0001
disk_io          = 'low'
pseudo_dir       = '/home/bctan/QE/pseudoatsume/GBRV_pbe_UPF'
/
&SYSTEM
nspin=2
starting_magnetization(3)=0.2
starting_magnetization(5)=0.2
starting_magnetization(1)=0.2
starting_magnetization(4)=-0.2
ecutwfc          = 36
ecutrho          = 400
occupations      = 'smearing'
degauss          = 0.007
smearing         = 'm-p'
input_dft        = 'rpbe'
ntyp             = 5
nat              = 52
ibrav            = 0
/
&ELECTRONS
electron_maxstep = 1001
conv_thr         = 34.D-10
mixing_mode      = 'plain'
mixing_beta      = 0.3
diagonalization  = 'cg'
startingpot      = 'file'
/
&IONS
ion_dynamics     = 'bfgs'
upscale          = 20.0
/
&CELL
cell_dynamics    = 'bfgs'
press            = 0
cell_factor      = 3.0
press_conv_thr   = 0.05
cell_dofree      = 'all'
/

ATOMIC_SPECIES
C 12.011 c_pbe_v1.2.uspp.F.UPF
H 1.008 h_pbe_v1.4.uspp.F.UPF
Pt 195.084 pt_pbe_v1.4.uspp.F.UPF
C1 12.011 c_pbe_v1.2.uspp.F.UPF
O 15.999 o_pbe_v1.2.uspp.F.UPF

K_POINTS automatic
8 2 1  0 0 0

CELL_PARAMETERS angstrom
  9.863980720000    0.00000000    0.000000000
0.00000000000000 30.0000000000000 0.00000000000000
 0.00000000    0.00000000   15.500000000
ATOMIC_POSITIONS angstrom
C1       0.711871490   2.921239419   5.000000000    0   0   0
C        0.710681787   4.359123647   5.003056343
C        1.944869080   2.209367928   5.000000000    0   0   0
C1       1.943226379   5.061922680   5.016397814
C1       3.177866670   2.921239419   5.000000000    0   0   0
C        3.177901372   4.357255670   5.011884459
C        4.410864260   2.209367928   5.000000000    0   0   0
C1       4.412682337   5.061834492   5.016632578
C1       5.643861850   2.921239419   5.000000000    0   0   0
C        5.645236987   4.359120341   5.003262813
C        6.876859440   2.209367928   5.000000000    0   0   0
C1       6.878511890   5.069661095   4.994050155
C1       8.109857030   2.921239419   5.000000000    0   0   0
C        8.110012958   4.360859662   4.993341872
C        9.342854620   2.209367928   5.000000000    0   0   0
C1       9.341563021   5.069764561   4.993865899
C1       0.710504925   7.203677969   5.016115333
C        0.712468144   8.633724889   5.021564630
C        1.941870490   6.491187737   5.037191369
C1       1.948532530   9.323086905   5.119246027
C1       3.178063902   7.192825090   5.063436143
C        3.178104045   8.616588958   5.117762716
C        4.414236089   6.491094337   5.037452558
C1       4.407813617   9.323027576   5.118150886
C1       5.645847743   7.203414485   5.016464405
C        5.644070948   8.633591835   5.021156957
C        6.879982941   6.501415999   4.984250134
C1       6.866077525   9.359557099   4.887333296
C1       8.110314547   7.220799184   4.957264402
C        8.110304490   8.651853647   4.883722751
C        9.340500727   6.501487053   4.983977592
C1       9.354400305   9.359757062   4.888615811
H        1.944502339   1.109523374   5.000000000    0   0   0
H        4.410497520   1.109523374   5.000000000    0   0   0
H        6.876492701   1.109523374   5.000000000    0   0   0
H        9.342487882   1.109523374   5.000000000    0   0   0
H        5.583628664  12.549402017   5.019009701
C        6.808948160  10.790845587   4.763185593
C        1.957802492  10.754000903   5.188889247
C1       0.740877022  11.452939157   5.042766275
Pt       8.113792168  11.910313501   3.866251551
C        9.412978286  10.791145903   4.767897923
C        4.399192749  10.754043152   5.186372199
H        3.178605207  12.533474946   5.306609381
C1       5.616432612  11.452202873   5.037474620
C1       3.178579474  11.436586380   5.267006763
H        0.773539464  12.549976518   5.024015566
O        8.145604773  13.296262031   2.494060026
H        8.189475228  12.961194749   1.570030576
O        8.216664865   9.352012504   1.622970157
H        8.185850277  10.142317028   2.230586654
H        7.389742396   9.434992382   1.098683684

