&PROJWFC
prefix           = '8cohc'
outdir           = './tmpohc1'
filpdos = 'a73.8cohc.dos',
filproj = 'a73.8cohc.pproj',
ngauss = 0,
degauss=0.012,
Emin = -20.0,
Emax = 50.0,
DeltaE = 0.01,
lsym = .true.,
/
