&CONTROL
calculation      = 'scf'
verbosity        = 'high'
restart_mode     = 'from_scratch'
wf_collect       = .TRUE.
nstep            = 1000
!tstress          = .TRUE.
tprnfor          = .TRUE.
outdir           = './tmpohc1'
prefix           = '8cohc'
etot_conv_thr    = 1.D-7
forc_conv_thr    = 0.0001
disk_io          = 'low'
pseudo_dir       = '/home/pseudo/pseudo_PAW-PBE'
/
&SYSTEM
nspin=2
starting_magnetization(3)=0.2
starting_magnetization(4)=0.2
ecutwfc          = 60
ecutrho          = 600
occupations      = 'smearing'
degauss          = 0.007
smearing         = 'm-p'
input_dft        = 'rpbe'
ntyp             = 4
nat              = 45
ibrav            = 0
nosym = .true.
noinv = .true.
nbnd=200
/
&ELECTRONS
electron_maxstep = 1001
conv_thr         = 34.D-10
mixing_mode      = 'plain'
mixing_beta      = 0.3
diagonalization  = 'cg'
startingpot      = 'file'
/
&IONS
ion_dynamics     = 'bfgs'
upscale          = 20.0
/
&CELL
cell_dynamics    = 'bfgs'
press            = 0
cell_factor      = 3.0
press_conv_thr   = 0.05
cell_dofree      = 'all'
/

ATOMIC_SPECIES
C 12.011 C.pbe-n-kjpaw_psl.1.0.0.UPF
H 1.008 H.pbe-kjpaw_psl.1.0.0.UPF
Pt 195.084 Pt.pbe-spfn-kjpaw_psl.1.0.0.UPF
O 15.999 O.pbe-n-kjpaw_psl.1.0.0.UPF

K_POINTS automatic
8 4 2  0 0 0

CELL_PARAMETERS angstrom
  8.542865672447    0.00000000    0.000000000
0.00000000000000 30.0000000000000 0.00000000000000
 0.00000000    0.00000000   15.500000000
ATOMIC_POSITIONS angstrom
C        1.423742981   2.994992876   5.000000000    0   0   0
C        2.847485962   2.994992876   5.000000000    0   0   0
C        0.711871491   4.227990466   5.000000000    0   0   0
C        3.559357453   4.227990466   5.000000000    0   0   0
C        1.421705601   5.455987766   4.999696364
C        2.845303353   5.452394969   4.999712180
C        0.708013070   6.699047290   4.999576960
C        3.560460221   6.686978748   4.999095163
C        1.418670990   7.934992284   4.999015537
C        2.845149965   7.920257646   4.997813767
C        0.711418514   9.175569498   4.999044737
C        3.547715993   9.144408142   4.995256244
C        1.403121338  10.427267423   4.995661291
C        2.830700841  10.380413874   4.992993890
C        5.694971924   2.994992876   5.000000000    0   0   0
C        7.118714905   2.994992876   5.000000000    0   0   0
C        4.983100434   4.227990466   5.000000000    0   0   0
C        7.830586395   4.227990466   5.000000000    0   0   0
C        5.696276383   5.450784344   4.999827901
C        7.119308491   5.455304091   4.999910509
C        4.980206924   6.685344144   4.999417010
C        7.832496476   6.696695634   4.999709205
C        5.692315824   7.915826167   4.998849172
C        7.122290841   7.932676237   4.999250472
C        4.977711835   9.140824181   4.996174429
C        7.837410532   9.168172978   4.999356942
C        5.702906273  10.358314888   4.993243420
C        7.135371333  10.412483327   4.999142246
H        0.905113173   2.029212928   5.000000000    0   0   0
H        3.366115771   2.029212928   5.000000000    0   0   0
H        5.176342117   2.029212928   5.000000000    0   0   0
H        7.637344705   2.029212928   5.000000000    0   0   0
Pt       6.096986319  13.204056116   5.027358299
H        3.955285804  14.575375000   4.079189980
C        4.010966463  13.946139872   4.987839949
C        1.543611508  12.895721891   4.986354951
C        3.588161635  11.576264818   4.989420230
H        3.927502295  14.600239181   5.876905495
H        1.026105415  13.865588779   4.969034748
C        7.766340497  11.699371271   5.005108400
C        5.016726241  11.591264443   4.982932622
C        2.952958736  12.840005385   4.988131514
C        0.694921040  11.711518523   4.994827281
O        7.232033943  14.833432866   5.093346622
H        7.369595942  15.123021544   6.026937957