&CONTROL
calculation      = 'relax'
verbosity        = 'high'
restart_mode     = 'from_scratch'
wf_collect       = .TRUE.
nstep            = 1000
!tstress          = .TRUE.
tprnfor          = .TRUE.
outdir           = './tmpohb'
prefix           = 'c11'
etot_conv_thr    = 1.D-7
forc_conv_thr    = 0.0001
disk_io          = 'low'
pseudo_dir       = '/home/pseudo/GBRV_pbe_UPF'
/
&SYSTEM
nspin=2
starting_magnetization(5)=0.2
starting_magnetization(3)=0.2
starting_magnetization(1)=0.2
starting_magnetization(4)=-0.2
ecutwfc          = 36
ecutrho          = 400
occupations      = 'smearing'
degauss          = 0.007
smearing         = 'm-p'
input_dft        = 'vdw-df2-b86r'
ntyp             = 5
nat              = 49
ibrav            = 0
/
&ELECTRONS
electron_maxstep = 1001
conv_thr         = 34.D-10
mixing_mode      = 'plain'
mixing_beta      = 0.3
diagonalization  = 'cg'
startingpot      = 'file'
/
&IONS
ion_dynamics     = 'bfgs'
upscale          = 20.0
/
&CELL
cell_dynamics    = 'bfgs'
press            = 0
cell_factor      = 3.0
press_conv_thr   = 0.05
cell_dofree      = 'all'
/

ATOMIC_SPECIES
C 12.011 c_pbe_v1.2.uspp.F.UPF
H 1.008 h_pbe_v1.4.uspp.F.UPF
Pt 195.084 pt_pbe_v1.4.uspp.F.UPF
C1 12.011 c_pbe_v1.2.uspp.F.UPF
O 15.999 o_pbe_v1.2.uspp.F.UPF

K_POINTS automatic
8 2 1  0 0 0

CELL_PARAMETERS angstrom
  9.863980720000    0.00000000    0.000000000
0.00000000000000 30.0000000000000 0.00000000000000
 0.00000000    0.00000000   15.500000000
ATOMIC_POSITIONS angstrom
   C1    0.711871490451       2.921239418834       5.000000000000       0 0 0 
   C    0.708696442497       4.368520724319       4.998859769800       1 1 1 
   C    1.944869080351       2.209367928383       5.000000000000       0 0 0 
   C1    1.943151406613       5.076742090064       5.019201535100       1 1 1 
   C1    3.177866670251       2.921239418834       5.000000000000       0 0 0 
   C    3.177128771793       4.366417462419       5.017358064200       1 1 1 
   C    4.410864260152       2.209367928383       5.000000000000       0 0 0 
   C1    4.410703153195       5.076078151158       5.020271780900       1 1 1 
   C1    5.643861850052       2.921239418834       5.000000000000       0 0 0 
   C    5.646074711320       4.368118017377       4.999398714900       1 1 1 
   C    6.876859439952       2.209367928383       5.000000000000       0 0 0 
   C1    6.877235279611       5.083493024637       4.978727025100       1 1 1 
   C1    8.109857029952       2.921239418834       5.000000000000       0 0 0 
   C    8.109410985763       4.369135352364       4.979567729500       1 1 1 
   C    9.342854619852       2.209367928383       5.000000000000       0 0 0 
   C1    9.341133201274       5.083796611092       4.978802897700       1 1 1 
   C1    0.708489863263       7.231369421714       5.001042667500       1 1 1 
   C    0.710966293189       8.670507635577       5.000497878700       1 1 1 
   C    1.942073075900       6.512482151866       5.043819906100       1 1 1 
   C1    1.948444749135       9.367049596822       5.146872269100       1 1 1 
   C1    3.175512519695       7.218732265313       5.080976726100       1 1 1 
   C    3.175170902921       8.651447368037       5.152510026700       1 1 1 
   C    4.409588022506       6.511695472461       5.044634905500       1 1 1 
   C1    4.401673480688       9.368221112844       5.145433884000       1 1 1 
   C1    5.642908140693       7.230380672536       5.001732258100       1 1 1 
   C    5.638647812345       8.669804901530       5.001755315300       1 1 1 
   C    6.875890505647       6.525351664805       4.953379491800       1 1 1 
   C1    6.854148197528       9.397714306387       4.835477310300       1 1 1 
   C1    8.107942620423       7.253358721405       4.905488957400       1 1 1 
   C    8.107006839191       8.692633195464       4.817670745000       1 1 1 
   C    9.340557108804       6.525590944370       4.954119580200       1 1 1 
   C1    9.359397358876       9.398174249540       4.832896173600       1 1 1 
   H    1.944502339281       1.109523373613       5.000000000000       0 0 0 
   H    4.410497520279       1.109523373613       5.000000000000       0 0 0 
   H    6.876492701277       1.109523373613       5.000000000000       0 0 0 
   H    9.342487882276       1.109523373613       5.000000000000       0 0 0 
   H    5.558166068479      12.626627294285       5.043720950500       1 1 1 
   C    6.745703759880      10.835372399663       4.737355449900       1 1 1 
   C    1.967275130406      10.801900610762       5.238747099200       1 1 1 
   C1    0.759321888370      11.519516256053       5.045614915000       1 1 1 
  Pt    8.106651350708      11.940186174233       4.010380839100       1 1 1 
   C    9.466637468857      10.835893874345       4.738208518900       1 1 1 
   C    4.381996020890      10.802832597836       5.240103596700       1 1 1 
   H    3.172316204896      12.600450243509       5.412560741200       1 1 1 
   C1    5.590050920771      11.520380880646       5.047897999500       1 1 1 
   C1    3.174301096091      11.494688367205       5.360320627100       1 1 1 
   H    0.789537039222      12.626041921330       5.040944435700       1 1 1 
O   9.50660 13.94000    4.01000
H   10.50234    13.94000    4.01000

