&CONTROL
calculation      = 'scf'
verbosity        = 'high'
restart_mode     = 'from_scratch'
wf_collect       = .TRUE.
nstep            = 1000
!tstress          = .TRUE.
tprnfor          = .TRUE.
outdir           = './tmpohb'
prefix           = 'c11'
etot_conv_thr    = 1.D-7
forc_conv_thr    = 0.0001
disk_io          = 'low'
pseudo_dir       = '/home/pseudo/GBRV_pbe_UPF'
/
&SYSTEM
nspin=2
starting_magnetization(5)=0.2
starting_magnetization(3)=0.2
starting_magnetization(1)=0.2
starting_magnetization(4)=-0.2
ecutwfc          = 36
ecutrho          = 400
occupations      = 'smearing'
degauss          = 0.007
smearing         = 'm-p'
input_dft        = 'rpbe'
ntyp             = 5
nat              = 49
ibrav            = 0
/
&ELECTRONS
electron_maxstep = 1001
conv_thr         = 34.D-10
mixing_mode      = 'plain'
mixing_beta      = 0.3
diagonalization  = 'cg'
startingpot      = 'file'
/
&IONS
ion_dynamics     = 'bfgs'
upscale          = 20.0
/
&CELL
cell_dynamics    = 'bfgs'
press            = 0
cell_factor      = 3.0
press_conv_thr   = 0.05
cell_dofree      = 'all'
/

ATOMIC_SPECIES
C 12.011 c_pbe_v1.2.uspp.F.UPF
H 1.008 h_pbe_v1.4.uspp.F.UPF
Pt 195.084 pt_pbe_v1.4.uspp.F.UPF
C1 12.011 c_pbe_v1.2.uspp.F.UPF
O 15.999 o_pbe_v1.2.uspp.F.UPF

K_POINTS automatic
8 2 1  0 0 0

CELL_PARAMETERS angstrom
  9.863980720000    0.00000000    0.000000000
0.00000000000000 30.0000000000000 0.00000000000000
 0.00000000    0.00000000   15.500000000
 ATOMIC_POSITIONS angstrom
C1            0.7118714905        2.9212394188        5.0000000000    0   0   0
C             0.7104499372        4.3590749978        5.0006229783
C             1.9448690803        2.2093679284        5.0000000000    0   0   0
C1            1.9431541089        5.0620106396        5.0119420275
C1            3.1778666703        2.9212394188        5.0000000000    0   0   0
C             3.1778574802        4.3572873950        5.0093458078
C             4.4108642602        2.2093679284        5.0000000000    0   0   0
C1            4.4125604600        5.0620223424        5.0119807025
C1            5.6438618501        2.9212394188        5.0000000000    0   0   0
C             5.6452593492        4.3590789319        5.0006841335
C             6.8768594400        2.2093679284        5.0000000000    0   0   0
C1            6.8783348504        5.0693866527        4.9892344124
C1            8.1098570300        2.9212394188        5.0000000000    0   0   0
C             8.1098529400        4.3606134608        4.9906817300
C             9.3428546199        2.2093679284        5.0000000000    0   0   0
C1            9.3413795745        5.0693952667        4.9891724151
C1            0.7104061055        7.2037826331        5.0037870490
C             0.7121360924        8.6343417105        5.0047901374
C             1.9419779079        6.4911778895        5.0278928689
C1            1.9484717238        9.3236412640        5.1038044997
C1            3.1778594058        7.1928569415        5.0516723611
C             3.1778512342        8.6170140818        5.1032170184
C             4.4137499917        6.4911953113        5.0278530672
C1            4.4072324237        9.3236280979        5.1037238683
C1            5.6453415918        7.2037838548        5.0037260060
C             5.6435996285        8.6343466889        5.0047353185
C             6.8791697960        6.5014148311        4.9736427354
C1            6.8651251156        9.3609768452        4.8690530120
C1            8.1098644160        7.2211813226        4.9422691028
C             8.1098593069        8.6530528517        4.8637820875
C             9.3405614519        6.5014213699        4.9736387078
C1            9.3545998987        9.3609621772        4.8690514361
H             1.9445023393        1.1095233736        5.0000000000    0   0   0
H             4.4104975203        1.1095233736        5.0000000000    0   0   0
H             6.8764927013        1.1095233736        5.0000000000    0   0   0
H             9.3424878823        1.1095233736        5.0000000000    0   0   0
H             5.5842865001       12.5509255380        5.0323428772
C             6.8081670036       10.7939741344        4.7575540020
C             1.9574325272       10.7544660422        5.1773443748
C1            0.7407578000       11.4537932806        5.0373835234
Pt            8.1098967187       11.9150002271        3.8726886190
C             9.4115708914       10.7939642240        4.7575526827
C             4.3982519907       10.7544588851        5.1772408749
H             3.1778068500       12.5335866185        5.3056485104
C1            5.6149494176       11.4537602466        5.0372921745
C1            3.1778433571       11.4369557190        5.2602425994
H             0.7715245937       12.5509622728        5.0323903135
O             8.1101566584       13.2716245252        2.4755967241
H             8.1104035540       12.9084382249        1.5612049224
