&CONTROL
calculation      = 'relax'
verbosity        = 'high'
restart_mode     = 'from_scratch'
wf_collect       = .TRUE.
nstep            = 1000
!tstress          = .TRUE.
tprnfor          = .TRUE.
outdir           = './tmpohc1'
prefix           = 'c11'
etot_conv_thr    = 1.D-7
forc_conv_thr    = 0.0001
disk_io          = 'low'
pseudo_dir       = '/home/pseudo/GBRV_pbe_UPF'
/
&SYSTEM
nspin=2
starting_magnetization(3)=0.2
starting_magnetization(4)=0.2
ecutwfc          = 36
ecutrho          = 400
occupations      = 'smearing'
degauss          = 0.007
smearing         = 'm-p'
input_dft        = 'vdw-df2-b86r'
ntyp             = 4
nat              = 45
ibrav            = 0
/
&ELECTRONS
electron_maxstep = 1001
conv_thr         = 34.D-10
mixing_mode      = 'plain'
mixing_beta      = 0.3
diagonalization  = 'cg'
startingpot      = 'file'
/
&IONS
ion_dynamics     = 'bfgs'
upscale          = 20.0
/
&CELL
cell_dynamics    = 'bfgs'
press            = 0
cell_factor      = 3.0
press_conv_thr   = 0.05
cell_dofree      = 'all'
/

ATOMIC_SPECIES
C 12.011 c_pbe_v1.2.uspp.F.UPF
H 1.008 h_pbe_v1.4.uspp.F.UPF
Pt 195.084 pt_pbe_v1.4.uspp.F.UPF
O 15.999 o_pbe_v1.2.uspp.F.UPF

K_POINTS automatic
8 2 1  0 0 0

CELL_PARAMETERS angstrom
  8.542865672447    0.00000000    0.000000000
0.00000000000000 30.0000000000000 0.00000000000000
 0.00000000    0.00000000   15.500000000
ATOMIC_POSITIONS angstrom
C        1.423742981   2.994992876   5.000000000    0   0   0
C        2.847485962   2.994992876   5.000000000    0   0   0
C        0.711871491   4.227990466   5.000000000    0   0   0
C        3.559357453   4.227990466   5.000000000    0   0   0
C        1.421987677   5.455834286   5.000015092
C        2.845588280   5.451810907   5.000013602
C        0.708526220   6.698588090   5.000021120
C        3.560956562   6.686831616   5.000020561
C        1.419067558   7.934776488   5.000011104
C        2.846168719   7.919100001   5.000016138
C        0.712074330   9.173482728   4.999989609
C        3.549685867   9.143720447   5.000002987
C        1.403492154  10.424666524   4.999971244
C        2.827263114  10.375650414   4.999979292
C        5.694971924   2.994992876   5.000000000    0   0   0
C        7.118714905   2.994992876   5.000000000    0   0   0
C        4.983100434   4.227990466   5.000000000    0   0   0
C        7.830586395   4.227990466   5.000000000    0   0   0
C        5.696774616   5.450530565   5.000014531
C        7.119824484   5.455834367   5.000016406
C        4.980908396   6.684740646   5.000019382
C        7.833130460   6.697945187   5.000019403
C        5.694222229   7.914419814   5.000008942
C        7.123823733   7.934977825   5.000006462
C        4.979722234   9.137280999   4.999998688
C        7.837750325   9.173455882   4.999989309
C        5.710722615  10.353429807   4.999977658
C        7.146948597  10.424341826   4.999973764
H        0.905113173   2.029212928   5.000000000    0   0   0
H        3.366115771   2.029212928   5.000000000    0   0   0
H        5.176342117   2.029212928   5.000000000    0   0   0
H        7.637344705   2.029212928   5.000000000    0   0   0
Pt       6.033044684  13.107522104   4.999973153
H        3.883790884  14.618398620   4.113675849
C        4.021575381  13.964686994   4.999981918
C        1.544575969  12.890443097   4.999958987
C        3.568504612  11.580959270   4.999969038
H        3.883797816  14.618363301   5.886316106
H        1.030106614  13.862176939   4.999961841
C        7.771932058  11.731350644   4.999963332
C        4.986161878  11.554636655   4.999969657
C        2.951814506  12.852465066   4.999967598
C        0.699668669  11.704875648   4.999957652
O        6.03300 15.10700    5.00000
H        6.03300 15.10700    5.99574